; DUP1 PUSH cw_3 SLOAD SWAP1 => PUSH cw_3 SLOAD DUP2
(set-option :produce-proofs true)
; 
(set-info :status unknown)
(declare-fun storage_t ((_ BitVec 256) (_ BitVec 256) (_ BitVec 256) Int (_ BitVec 256)) (_ BitVec 256))
(declare-fun w_3 () (_ BitVec 256))
(declare-fun storage_s ((_ BitVec 256) (_ BitVec 256) (_ BitVec 256) Int (_ BitVec 256)) (_ BitVec 256))
(declare-fun exc_halt_t (Int) Bool)
(declare-fun exc_halt_s (Int) Bool)
(declare-fun sc_t (Int) (_ BitVec 6))
(declare-fun stack_t ((_ BitVec 256) (_ BitVec 256) (_ BitVec 256) Int (_ BitVec 6)) (_ BitVec 256))
(declare-fun stack_s ((_ BitVec 256) (_ BitVec 256) (_ BitVec 256) Int (_ BitVec 6)) (_ BitVec 256))
(declare-fun sc_s (Int) (_ BitVec 6))
(declare-fun used_gas_t ((_ BitVec 256) (_ BitVec 256) (_ BitVec 256) Int) Int)
(declare-fun used_gas_s ((_ BitVec 256) (_ BitVec 256) (_ BitVec 256) Int) Int)
(assert
 (exists ((x_0 (_ BitVec 256)) (x_SLOAD_0 (_ BitVec 256)) )(let (($x899 (forall ((w (_ BitVec 256)) )(let ((?x832 (storage_t x_0 x_SLOAD_0 w_3 3 w)))
 (let ((?x2428 (storage_s x_0 x_SLOAD_0 w_3 4 w)))
 (= ?x2428 ?x832))))
 ))
 (let (($x9131 (exc_halt_t 3)))
 (let (($x9175 (exc_halt_s 4)))
 (let (($x826 (= $x9175 $x9131)))
 (let (($x5992 (forall ((n (_ BitVec 6)) )(let ((?x10013 (sc_t 3)))
 (let (($x2131 (bvsle ?x10013 n)))
 (let ((?x10541 (stack_t x_0 x_SLOAD_0 w_3 3 n)))
 (let ((?x11929 (stack_s x_0 x_SLOAD_0 w_3 4 n)))
 (let (($x1193 (= ?x11929 ?x10541)))
 (or $x1193 $x2131)))))))
 ))
 (let ((?x10013 (sc_t 3)))
 (let ((?x9433 (sc_s 4)))
 (let (($x5827 (= ?x9433 ?x10013)))
 (let ((?x2145 (used_gas_t x_0 x_SLOAD_0 w_3 0)))
 (let ((?x5573 (used_gas_s x_0 x_SLOAD_0 w_3 0)))
 (let (($x5637 (= ?x5573 ?x2145)))
 (let (($x5018 (forall ((w (_ BitVec 256)) )(let ((?x11002 (storage_t x_0 x_SLOAD_0 w_3 0 w)))
 (let ((?x4760 (storage_s x_0 x_SLOAD_0 w_3 0 w)))
 (= ?x4760 ?x11002))))
 ))
 (let (($x56 (exc_halt_t 0)))
 (let (($x57 (exc_halt_s 0)))
 (let (($x58 (= $x57 $x56)))
 (let (($x8972 (forall ((n (_ BitVec 6)) )(let ((?x63 (sc_t 0)))
 (let (($x4370 (bvsle ?x63 n)))
 (let ((?x5456 (stack_t x_0 x_SLOAD_0 w_3 0 n)))
 (let ((?x9294 (stack_s x_0 x_SLOAD_0 w_3 0 n)))
 (let (($x2721 (= ?x9294 ?x5456)))
 (or $x2721 $x4370)))))))
 ))
 (let ((?x63 (sc_t 0)))
 (let ((?x72 (sc_s 0)))
 (let (($x73 (= ?x72 ?x63)))
 (let (($x8761 (not (= ((_ extract 6 6) (bvadd (_ bv1 7) (concat (_ bv0 1) (sc_t 2)))) (_ bv0 1)))))
 (let (($x6733 (exc_halt_t 2)))
 (let (($x6382 (forall ((w (_ BitVec 256)) )(let ((?x9485 (storage_t x_0 x_SLOAD_0 w_3 2 w)))
 (let ((?x832 (storage_t x_0 x_SLOAD_0 w_3 3 w)))
 (= ?x832 ?x9485))))
 ))
 (let (($x6996 (forall ((n (_ BitVec 6)) )(let ((?x3325 (stack_t x_0 x_SLOAD_0 w_3 2 n)))
 (let ((?x10541 (stack_t x_0 x_SLOAD_0 w_3 3 n)))
 (or (= ?x10541 ?x3325) (bvsle (bvadd (_ bv62 6) (sc_t 2)) n)))))
 ))
 (let (($x3557 (= ?x10013 (bvadd (_ bv1 6) (sc_t 2)))))
 (let (($x387 (= (used_gas_t x_0 x_SLOAD_0 w_3 3) (+ 3 (used_gas_t x_0 x_SLOAD_0 w_3 2)))))
 (let ((?x11248 (sc_t 2)))
 (let ((?x7848 (bvadd (_ bv63 6) ?x11248)))
 (let ((?x8641 (stack_t x_0 x_SLOAD_0 w_3 2 ?x7848)))
 (let ((?x11878 (bvadd (_ bv62 6) ?x11248)))
 (let ((?x2648 (stack_t x_0 x_SLOAD_0 w_3 2 ?x11878)))
 (let (($x6256 (= $x6733 (or (exc_halt_t 1) (not (bvsle (_ bv0 6) (bvadd (_ bv63 6) (sc_t 1))))))))
 (let (($x525 (forall ((w (_ BitVec 256)) )(let ((?x7370 (storage_t x_0 x_SLOAD_0 w_3 1 w)))
 (let ((?x9485 (storage_t x_0 x_SLOAD_0 w_3 2 w)))
 (= ?x9485 ?x7370))))
 ))
 (let (($x9796 (forall ((n (_ BitVec 6)) )(let ((?x8295 (stack_t x_0 x_SLOAD_0 w_3 1 n)))
 (let ((?x3325 (stack_t x_0 x_SLOAD_0 w_3 2 n)))
 (let ((?x9666 (sc_t 1)))
 (let ((?x5733 (bvadd (_ bv63 6) ?x9666)))
 (let (($x7796 (bvsle ?x5733 n)))
 (or $x7796 (= ?x3325 ?x8295))))))))
 ))
 (let ((?x9666 (sc_t 1)))
 (let (($x6434 (= ?x11248 ?x9666)))
 (let ((?x9032 (used_gas_t x_0 x_SLOAD_0 w_3 2)))
 (let ((?x11127 (storage_t x_0 x_SLOAD_0 w_3 1 (stack_t x_0 x_SLOAD_0 w_3 1 (bvadd (_ bv63 6) ?x9666)))))
 (let (($x4852 (exc_halt_t 1)))
 (let (($x71 (= $x4852 (or $x56 (not (= ((_ extract 6 6) (bvadd (_ bv1 7) (concat (_ bv0 1) ?x63))) (_ bv0 1)))))))
 (let (($x6029 (forall ((w (_ BitVec 256)) )(let ((?x11002 (storage_t x_0 x_SLOAD_0 w_3 0 w)))
 (let ((?x7370 (storage_t x_0 x_SLOAD_0 w_3 1 w)))
 (= ?x7370 ?x11002))))
 ))
 (let (($x7214 (forall ((n (_ BitVec 6)) )(let ((?x5456 (stack_t x_0 x_SLOAD_0 w_3 0 n)))
 (let ((?x8295 (stack_t x_0 x_SLOAD_0 w_3 1 n)))
 (let ((?x63 (sc_t 0)))
 (let (($x4370 (bvsle ?x63 n)))
 (or $x4370 (= ?x8295 ?x5456)))))))
 ))
 (let (($x11820 (= ?x9666 (bvadd (_ bv1 6) ?x63))))
 (let (($x706 (= $x9175 (or (exc_halt_s 3) (not (bvsle (_ bv0 6) (bvadd (_ bv62 6) (sc_s 3))))))))
 (let (($x5655 (forall ((w (_ BitVec 256)) )(let ((?x10113 (storage_s x_0 x_SLOAD_0 w_3 3 w)))
 (let ((?x2428 (storage_s x_0 x_SLOAD_0 w_3 4 w)))
 (= ?x2428 ?x10113))))
 ))
 (let (($x10557 (forall ((n (_ BitVec 6)) )(let ((?x6428 (stack_s x_0 x_SLOAD_0 w_3 3 n)))
 (let ((?x11929 (stack_s x_0 x_SLOAD_0 w_3 4 n)))
 (let ((?x3851 (sc_s 3)))
 (let ((?x1068 (bvadd (_ bv62 6) ?x3851)))
 (let (($x6547 (bvsle ?x1068 n)))
 (or $x6547 (= ?x11929 ?x6428))))))))
 ))
 (let ((?x3851 (sc_s 3)))
 (let (($x6040 (= ?x9433 ?x3851)))
 (let (($x7338 (= (used_gas_s x_0 x_SLOAD_0 w_3 4) (+ 3 (used_gas_s x_0 x_SLOAD_0 w_3 3)))))
 (let ((?x9751 (bvadd (_ bv63 6) ?x3851)))
 (let ((?x4922 (stack_s x_0 x_SLOAD_0 w_3 3 ?x9751)))
 (let (($x2942 (= (stack_s x_0 x_SLOAD_0 w_3 4 (bvadd (_ bv63 6) ?x9433)) (stack_s x_0 x_SLOAD_0 w_3 3 (bvadd (_ bv62 6) ?x3851)))))
 (let (($x8103 (exc_halt_s 3)))
 (let (($x8777 (= $x8103 (or (exc_halt_s 2) (not (bvsle (_ bv0 6) (bvadd (_ bv63 6) (sc_s 2))))))))
 (let (($x1695 (forall ((w (_ BitVec 256)) )(let ((?x4181 (storage_s x_0 x_SLOAD_0 w_3 2 w)))
 (let ((?x10113 (storage_s x_0 x_SLOAD_0 w_3 3 w)))
 (= ?x10113 ?x4181))))
 ))
 (let (($x9699 (forall ((n (_ BitVec 6)) )(let ((?x4391 (stack_s x_0 x_SLOAD_0 w_3 2 n)))
 (let ((?x6428 (stack_s x_0 x_SLOAD_0 w_3 3 n)))
 (let ((?x2272 (sc_s 2)))
 (let ((?x5283 (bvadd (_ bv63 6) ?x2272)))
 (let (($x914 (bvsle ?x5283 n)))
 (or $x914 (= ?x6428 ?x4391))))))))
 ))
 (let ((?x2272 (sc_s 2)))
 (let (($x863 (= ?x3851 ?x2272)))
 (let ((?x658 (used_gas_s x_0 x_SLOAD_0 w_3 3)))
 (let ((?x1127 (storage_s x_0 x_SLOAD_0 w_3 2 (stack_s x_0 x_SLOAD_0 w_3 2 (bvadd (_ bv63 6) ?x2272)))))
 (let (($x2355 (not (= ((_ extract 6 6) (bvadd (_ bv1 7) (concat (_ bv0 1) (sc_s 1)))) (_ bv0 1)))))
 (let (($x8780 (exc_halt_s 1)))
 (let (($x10052 (exc_halt_s 2)))
 (let (($x11443 (= $x10052 (or $x8780 $x2355))))
 (let (($x9644 (forall ((w (_ BitVec 256)) )(let ((?x16 (storage_s x_0 x_SLOAD_0 w_3 1 w)))
 (let ((?x4181 (storage_s x_0 x_SLOAD_0 w_3 2 w)))
 (= ?x4181 ?x16))))
 ))
 (let (($x1700 (forall ((n (_ BitVec 6)) )(let ((?x154 (sc_s 1)))
 (let (($x10420 (bvsle ?x154 n)))
 (let ((?x5256 (stack_s x_0 x_SLOAD_0 w_3 1 n)))
 (let ((?x4391 (stack_s x_0 x_SLOAD_0 w_3 2 n)))
 (or (= ?x4391 ?x5256) $x10420))))))
 ))
 (let (($x6608 (= ?x2272 (bvadd (_ bv1 6) (sc_s 1)))))
 (let ((?x10687 (used_gas_s x_0 x_SLOAD_0 w_3 2)))
 (let (($x6025 (not (bvsle (_ bv0 6) (bvadd (_ bv63 6) ?x72)))))
 (let (($x3534 (not (= ((_ extract 6 6) (bvadd (_ bv1 7) (concat (_ bv0 1) ?x72))) (_ bv0 1)))))
 (let (($x11599 (= $x8780 (or $x57 $x3534 $x6025))))
 (let (($x3498 (forall ((w (_ BitVec 256)) )(let ((?x4760 (storage_s x_0 x_SLOAD_0 w_3 0 w)))
 (let ((?x16 (storage_s x_0 x_SLOAD_0 w_3 1 w)))
 (= ?x16 ?x4760))))
 ))
 (let (($x7276 (forall ((n (_ BitVec 6)) )(let ((?x9294 (stack_s x_0 x_SLOAD_0 w_3 0 n)))
 (let ((?x5256 (stack_s x_0 x_SLOAD_0 w_3 1 n)))
 (let ((?x72 (sc_s 0)))
 (let ((?x3268 (bvadd (_ bv63 6) ?x72)))
 (let (($x3916 (bvsle ?x3268 n)))
 (or $x3916 (= ?x5256 ?x9294))))))))
 ))
 (let ((?x154 (sc_s 1)))
 (let (($x8172 (= ?x154 (bvadd (_ bv1 6) ?x72))))
 (let ((?x3268 (bvadd (_ bv63 6) ?x72)))
 (let ((?x4056 (stack_s x_0 x_SLOAD_0 w_3 0 ?x3268)))
 (let (($x11649 (forall ((w (_ BitVec 256)) )(let ((?x5706 (ite (= w (stack_s x_0 x_SLOAD_0 w_3 2 (bvadd (_ bv63 6) (sc_s 2)))) x_SLOAD_0 (_ bv0 256))))
 (let ((?x4760 (storage_s x_0 x_SLOAD_0 w_3 0 w)))
 (= ?x4760 ?x5706))))
 ))
 (let (($x8092 (= ?x5573 0)))
 (let (($x2248 (not $x57)))
 (let (($x9934 (= (stack_s x_0 x_SLOAD_0 w_3 0 (_ bv0 6)) x_0)))
 (let (($x7461 (= ?x72 (_ bv1 6))))
 (and $x7461 $x9934 $x2248 $x8092 $x11649 (= (stack_s x_0 x_SLOAD_0 w_3 1 (bvadd (_ bv63 6) ?x154)) ?x4056) (= (stack_s x_0 x_SLOAD_0 w_3 1 ?x3268) ?x4056) (= (used_gas_s x_0 x_SLOAD_0 w_3 1) (+ 3 ?x5573)) $x8172 $x7276 $x3498 $x11599 (= (stack_s x_0 x_SLOAD_0 w_3 2 ?x154) w_3) (= ?x10687 (+ 3 (used_gas_s x_0 x_SLOAD_0 w_3 1))) $x6608 $x1700 $x9644 $x11443 (= ?x4922 ?x1127) (= ?x658 (+ 200 ?x10687)) $x863 $x9699 $x1695 $x8777 $x2942 (= (stack_s x_0 x_SLOAD_0 w_3 4 (bvadd (_ bv62 6) ?x9433)) ?x4922) $x7338 $x6040 $x10557 $x5655 $x706 (= (stack_t x_0 x_SLOAD_0 w_3 1 ?x63) w_3) (= (used_gas_t x_0 x_SLOAD_0 w_3 1) (+ 3 ?x2145)) $x11820 $x7214 $x6029 $x71 (= ?x8641 ?x11127) (= ?x9032 (+ 200 (used_gas_t x_0 x_SLOAD_0 w_3 1))) $x6434 $x9796 $x525 $x6256 (= (stack_t x_0 x_SLOAD_0 w_3 3 (bvadd (_ bv63 6) ?x10013)) ?x2648) (= (stack_t x_0 x_SLOAD_0 w_3 3 ?x11878) ?x2648) (= (stack_t x_0 x_SLOAD_0 w_3 3 ?x7848) ?x8641) $x387 $x3557 $x6996 $x6382 (= $x9131 (or (not (bvsle (_ bv0 6) ?x11878)) $x6733 $x8761)) $x73 $x8972 $x58 $x5018 $x5637 (not (and $x5827 $x5992 $x826 $x899)))))))))))))))))))))))))))))))))))))))))))))))))))))))))))))))))))))))))))))))))))))
 )
(check-sat)
(get-proof)
